(set-logic QF_LRA)
(declare-fun X0 () Real )
(declare-fun Y0 () Real )
(declare-fun X1 () Real )
(declare-fun Y1 () Real )
(declare-fun X2 () Real )
(declare-fun Y2 () Real )
(declare-fun X3 () Real )
(declare-fun Y3 () Real )
(declare-fun X4 () Real )
(declare-fun Y4 () Real )
(declare-fun X5 () Real )
(declare-fun Y5 () Real )
(declare-fun X6 () Real )
(declare-fun Y6 () Real )
(declare-fun X7 () Real )
(declare-fun Y7 () Real )
(declare-fun X8 () Real )
(declare-fun Y8 () Real )
(declare-fun X9 () Real )
(declare-fun Y9 () Real )
(declare-fun X10 () Real )
(declare-fun Y10 () Real )
(declare-fun X11 () Real )
(declare-fun Y11 () Real )
(declare-fun X12 () Real )
(declare-fun Y12 () Real )
(declare-fun X13 () Real )
(declare-fun Y13 () Real )
(declare-fun X14 () Real )
(declare-fun Y14 () Real )
(declare-fun Z () Real )
(declare-fun k () Real )
(assert (let
(( $goal (>= Z k) ))
(let
((
$phi ( and 
( or ( <= ( + X0 36 ) X1 )  ( <= ( + X1 15 ) X0 )  ( <= ( + Y0 75 ) Y1 )  ( <= ( + Y1 4 ) Y0 )  )
( or ( <= ( + X0 36 ) X2 )  ( <= ( + X2 4 ) X0 )  ( <= ( + Y0 75 ) Y2 )  ( <= ( + Y2 8 ) Y0 )  )
( or ( <= ( + X0 36 ) X3 )  ( <= ( + X3 33 ) X0 )  ( <= ( + Y0 75 ) Y3 )  ( <= ( + Y3 99 ) Y0 )  )
( or ( <= ( + X0 36 ) X4 )  ( <= ( + X4 42 ) X0 )  ( <= ( + Y0 75 ) Y4 )  ( <= ( + Y4 99 ) Y0 )  )
( or ( <= ( + X0 36 ) X5 )  ( <= ( + X5 14 ) X0 )  ( <= ( + Y0 75 ) Y5 )  ( <= ( + Y5 68 ) Y0 )  )
( or ( <= ( + X0 36 ) X6 )  ( <= ( + X6 47 ) X0 )  ( <= ( + Y0 75 ) Y6 )  ( <= ( + Y6 71 ) Y0 )  )
( or ( <= ( + X0 36 ) X7 )  ( <= ( + X7 54 ) X0 )  ( <= ( + Y0 75 ) Y7 )  ( <= ( + Y7 87 ) Y0 )  )
( or ( <= ( + X0 36 ) X8 )  ( <= ( + X8 15 ) X0 )  ( <= ( + Y0 75 ) Y8 )  ( <= ( + Y8 70 ) Y0 )  )
( or ( <= ( + X0 36 ) X9 )  ( <= ( + X9 99 ) X0 )  ( <= ( + Y0 75 ) Y9 )  ( <= ( + Y9 56 ) Y0 )  )
( or ( <= ( + X0 36 ) X10 )  ( <= ( + X10 30 ) X0 )  ( <= ( + Y0 75 ) Y10 )  ( <= ( + Y10 31 ) Y0 )  )
( or ( <= ( + X0 36 ) X11 )  ( <= ( + X11 93 ) X0 )  ( <= ( + Y0 75 ) Y11 )  ( <= ( + Y11 7 ) Y0 )  )
( or ( <= ( + X0 36 ) X12 )  ( <= ( + X12 73 ) X0 )  ( <= ( + Y0 75 ) Y12 )  ( <= ( + Y12 98 ) Y0 )  )
( or ( <= ( + X0 36 ) X13 )  ( <= ( + X13 7 ) X0 )  ( <= ( + Y0 75 ) Y13 )  ( <= ( + Y13 84 ) Y0 )  )
( or ( <= ( + X0 36 ) X14 )  ( <= ( + X14 29 ) X0 )  ( <= ( + Y0 75 ) Y14 )  ( <= ( + Y14 5 ) Y0 )  )
( or ( <= ( + X1 15 ) X2 )  ( <= ( + X2 4 ) X1 )  ( <= ( + Y1 4 ) Y2 )  ( <= ( + Y2 8 ) Y1 )  )
( or ( <= ( + X1 15 ) X3 )  ( <= ( + X3 33 ) X1 )  ( <= ( + Y1 4 ) Y3 )  ( <= ( + Y3 99 ) Y1 )  )
( or ( <= ( + X1 15 ) X4 )  ( <= ( + X4 42 ) X1 )  ( <= ( + Y1 4 ) Y4 )  ( <= ( + Y4 99 ) Y1 )  )
( or ( <= ( + X1 15 ) X5 )  ( <= ( + X5 14 ) X1 )  ( <= ( + Y1 4 ) Y5 )  ( <= ( + Y5 68 ) Y1 )  )
( or ( <= ( + X1 15 ) X6 )  ( <= ( + X6 47 ) X1 )  ( <= ( + Y1 4 ) Y6 )  ( <= ( + Y6 71 ) Y1 )  )
( or ( <= ( + X1 15 ) X7 )  ( <= ( + X7 54 ) X1 )  ( <= ( + Y1 4 ) Y7 )  ( <= ( + Y7 87 ) Y1 )  )
( or ( <= ( + X1 15 ) X8 )  ( <= ( + X8 15 ) X1 )  ( <= ( + Y1 4 ) Y8 )  ( <= ( + Y8 70 ) Y1 )  )
( or ( <= ( + X1 15 ) X9 )  ( <= ( + X9 99 ) X1 )  ( <= ( + Y1 4 ) Y9 )  ( <= ( + Y9 56 ) Y1 )  )
( or ( <= ( + X1 15 ) X10 )  ( <= ( + X10 30 ) X1 )  ( <= ( + Y1 4 ) Y10 )  ( <= ( + Y10 31 ) Y1 )  )
( or ( <= ( + X1 15 ) X11 )  ( <= ( + X11 93 ) X1 )  ( <= ( + Y1 4 ) Y11 )  ( <= ( + Y11 7 ) Y1 )  )
( or ( <= ( + X1 15 ) X12 )  ( <= ( + X12 73 ) X1 )  ( <= ( + Y1 4 ) Y12 )  ( <= ( + Y12 98 ) Y1 )  )
( or ( <= ( + X1 15 ) X13 )  ( <= ( + X13 7 ) X1 )  ( <= ( + Y1 4 ) Y13 )  ( <= ( + Y13 84 ) Y1 )  )
( or ( <= ( + X1 15 ) X14 )  ( <= ( + X14 29 ) X1 )  ( <= ( + Y1 4 ) Y14 )  ( <= ( + Y14 5 ) Y1 )  )
( or ( <= ( + X2 4 ) X3 )  ( <= ( + X3 33 ) X2 )  ( <= ( + Y2 8 ) Y3 )  ( <= ( + Y3 99 ) Y2 )  )
( or ( <= ( + X2 4 ) X4 )  ( <= ( + X4 42 ) X2 )  ( <= ( + Y2 8 ) Y4 )  ( <= ( + Y4 99 ) Y2 )  )
( or ( <= ( + X2 4 ) X5 )  ( <= ( + X5 14 ) X2 )  ( <= ( + Y2 8 ) Y5 )  ( <= ( + Y5 68 ) Y2 )  )
( or ( <= ( + X2 4 ) X6 )  ( <= ( + X6 47 ) X2 )  ( <= ( + Y2 8 ) Y6 )  ( <= ( + Y6 71 ) Y2 )  )
( or ( <= ( + X2 4 ) X7 )  ( <= ( + X7 54 ) X2 )  ( <= ( + Y2 8 ) Y7 )  ( <= ( + Y7 87 ) Y2 )  )
( or ( <= ( + X2 4 ) X8 )  ( <= ( + X8 15 ) X2 )  ( <= ( + Y2 8 ) Y8 )  ( <= ( + Y8 70 ) Y2 )  )
( or ( <= ( + X2 4 ) X9 )  ( <= ( + X9 99 ) X2 )  ( <= ( + Y2 8 ) Y9 )  ( <= ( + Y9 56 ) Y2 )  )
( or ( <= ( + X2 4 ) X10 )  ( <= ( + X10 30 ) X2 )  ( <= ( + Y2 8 ) Y10 )  ( <= ( + Y10 31 ) Y2 )  )
( or ( <= ( + X2 4 ) X11 )  ( <= ( + X11 93 ) X2 )  ( <= ( + Y2 8 ) Y11 )  ( <= ( + Y11 7 ) Y2 )  )
( or ( <= ( + X2 4 ) X12 )  ( <= ( + X12 73 ) X2 )  ( <= ( + Y2 8 ) Y12 )  ( <= ( + Y12 98 ) Y2 )  )
( or ( <= ( + X2 4 ) X13 )  ( <= ( + X13 7 ) X2 )  ( <= ( + Y2 8 ) Y13 )  ( <= ( + Y13 84 ) Y2 )  )
( or ( <= ( + X2 4 ) X14 )  ( <= ( + X14 29 ) X2 )  ( <= ( + Y2 8 ) Y14 )  ( <= ( + Y14 5 ) Y2 )  )
( or ( <= ( + X3 33 ) X4 )  ( <= ( + X4 42 ) X3 )  ( <= ( + Y3 99 ) Y4 )  ( <= ( + Y4 99 ) Y3 )  )
( or ( <= ( + X3 33 ) X5 )  ( <= ( + X5 14 ) X3 )  ( <= ( + Y3 99 ) Y5 )  ( <= ( + Y5 68 ) Y3 )  )
( or ( <= ( + X3 33 ) X6 )  ( <= ( + X6 47 ) X3 )  ( <= ( + Y3 99 ) Y6 )  ( <= ( + Y6 71 ) Y3 )  )
( or ( <= ( + X3 33 ) X7 )  ( <= ( + X7 54 ) X3 )  ( <= ( + Y3 99 ) Y7 )  ( <= ( + Y7 87 ) Y3 )  )
( or ( <= ( + X3 33 ) X8 )  ( <= ( + X8 15 ) X3 )  ( <= ( + Y3 99 ) Y8 )  ( <= ( + Y8 70 ) Y3 )  )
( or ( <= ( + X3 33 ) X9 )  ( <= ( + X9 99 ) X3 )  ( <= ( + Y3 99 ) Y9 )  ( <= ( + Y9 56 ) Y3 )  )
( or ( <= ( + X3 33 ) X10 )  ( <= ( + X10 30 ) X3 )  ( <= ( + Y3 99 ) Y10 )  ( <= ( + Y10 31 ) Y3 )  )
( or ( <= ( + X3 33 ) X11 )  ( <= ( + X11 93 ) X3 )  ( <= ( + Y3 99 ) Y11 )  ( <= ( + Y11 7 ) Y3 )  )
( or ( <= ( + X3 33 ) X12 )  ( <= ( + X12 73 ) X3 )  ( <= ( + Y3 99 ) Y12 )  ( <= ( + Y12 98 ) Y3 )  )
( or ( <= ( + X3 33 ) X13 )  ( <= ( + X13 7 ) X3 )  ( <= ( + Y3 99 ) Y13 )  ( <= ( + Y13 84 ) Y3 )  )
( or ( <= ( + X3 33 ) X14 )  ( <= ( + X14 29 ) X3 )  ( <= ( + Y3 99 ) Y14 )  ( <= ( + Y14 5 ) Y3 )  )
( or ( <= ( + X4 42 ) X5 )  ( <= ( + X5 14 ) X4 )  ( <= ( + Y4 99 ) Y5 )  ( <= ( + Y5 68 ) Y4 )  )
( or ( <= ( + X4 42 ) X6 )  ( <= ( + X6 47 ) X4 )  ( <= ( + Y4 99 ) Y6 )  ( <= ( + Y6 71 ) Y4 )  )
( or ( <= ( + X4 42 ) X7 )  ( <= ( + X7 54 ) X4 )  ( <= ( + Y4 99 ) Y7 )  ( <= ( + Y7 87 ) Y4 )  )
( or ( <= ( + X4 42 ) X8 )  ( <= ( + X8 15 ) X4 )  ( <= ( + Y4 99 ) Y8 )  ( <= ( + Y8 70 ) Y4 )  )
( or ( <= ( + X4 42 ) X9 )  ( <= ( + X9 99 ) X4 )  ( <= ( + Y4 99 ) Y9 )  ( <= ( + Y9 56 ) Y4 )  )
( or ( <= ( + X4 42 ) X10 )  ( <= ( + X10 30 ) X4 )  ( <= ( + Y4 99 ) Y10 )  ( <= ( + Y10 31 ) Y4 )  )
( or ( <= ( + X4 42 ) X11 )  ( <= ( + X11 93 ) X4 )  ( <= ( + Y4 99 ) Y11 )  ( <= ( + Y11 7 ) Y4 )  )
( or ( <= ( + X4 42 ) X12 )  ( <= ( + X12 73 ) X4 )  ( <= ( + Y4 99 ) Y12 )  ( <= ( + Y12 98 ) Y4 )  )
( or ( <= ( + X4 42 ) X13 )  ( <= ( + X13 7 ) X4 )  ( <= ( + Y4 99 ) Y13 )  ( <= ( + Y13 84 ) Y4 )  )
( or ( <= ( + X4 42 ) X14 )  ( <= ( + X14 29 ) X4 )  ( <= ( + Y4 99 ) Y14 )  ( <= ( + Y14 5 ) Y4 )  )
( or ( <= ( + X5 14 ) X6 )  ( <= ( + X6 47 ) X5 )  ( <= ( + Y5 68 ) Y6 )  ( <= ( + Y6 71 ) Y5 )  )
( or ( <= ( + X5 14 ) X7 )  ( <= ( + X7 54 ) X5 )  ( <= ( + Y5 68 ) Y7 )  ( <= ( + Y7 87 ) Y5 )  )
( or ( <= ( + X5 14 ) X8 )  ( <= ( + X8 15 ) X5 )  ( <= ( + Y5 68 ) Y8 )  ( <= ( + Y8 70 ) Y5 )  )
( or ( <= ( + X5 14 ) X9 )  ( <= ( + X9 99 ) X5 )  ( <= ( + Y5 68 ) Y9 )  ( <= ( + Y9 56 ) Y5 )  )
( or ( <= ( + X5 14 ) X10 )  ( <= ( + X10 30 ) X5 )  ( <= ( + Y5 68 ) Y10 )  ( <= ( + Y10 31 ) Y5 )  )
( or ( <= ( + X5 14 ) X11 )  ( <= ( + X11 93 ) X5 )  ( <= ( + Y5 68 ) Y11 )  ( <= ( + Y11 7 ) Y5 )  )
( or ( <= ( + X5 14 ) X12 )  ( <= ( + X12 73 ) X5 )  ( <= ( + Y5 68 ) Y12 )  ( <= ( + Y12 98 ) Y5 )  )
( or ( <= ( + X5 14 ) X13 )  ( <= ( + X13 7 ) X5 )  ( <= ( + Y5 68 ) Y13 )  ( <= ( + Y13 84 ) Y5 )  )
( or ( <= ( + X5 14 ) X14 )  ( <= ( + X14 29 ) X5 )  ( <= ( + Y5 68 ) Y14 )  ( <= ( + Y14 5 ) Y5 )  )
( or ( <= ( + X6 47 ) X7 )  ( <= ( + X7 54 ) X6 )  ( <= ( + Y6 71 ) Y7 )  ( <= ( + Y7 87 ) Y6 )  )
( or ( <= ( + X6 47 ) X8 )  ( <= ( + X8 15 ) X6 )  ( <= ( + Y6 71 ) Y8 )  ( <= ( + Y8 70 ) Y6 )  )
( or ( <= ( + X6 47 ) X9 )  ( <= ( + X9 99 ) X6 )  ( <= ( + Y6 71 ) Y9 )  ( <= ( + Y9 56 ) Y6 )  )
( or ( <= ( + X6 47 ) X10 )  ( <= ( + X10 30 ) X6 )  ( <= ( + Y6 71 ) Y10 )  ( <= ( + Y10 31 ) Y6 )  )
( or ( <= ( + X6 47 ) X11 )  ( <= ( + X11 93 ) X6 )  ( <= ( + Y6 71 ) Y11 )  ( <= ( + Y11 7 ) Y6 )  )
( or ( <= ( + X6 47 ) X12 )  ( <= ( + X12 73 ) X6 )  ( <= ( + Y6 71 ) Y12 )  ( <= ( + Y12 98 ) Y6 )  )
( or ( <= ( + X6 47 ) X13 )  ( <= ( + X13 7 ) X6 )  ( <= ( + Y6 71 ) Y13 )  ( <= ( + Y13 84 ) Y6 )  )
( or ( <= ( + X6 47 ) X14 )  ( <= ( + X14 29 ) X6 )  ( <= ( + Y6 71 ) Y14 )  ( <= ( + Y14 5 ) Y6 )  )
( or ( <= ( + X7 54 ) X8 )  ( <= ( + X8 15 ) X7 )  ( <= ( + Y7 87 ) Y8 )  ( <= ( + Y8 70 ) Y7 )  )
( or ( <= ( + X7 54 ) X9 )  ( <= ( + X9 99 ) X7 )  ( <= ( + Y7 87 ) Y9 )  ( <= ( + Y9 56 ) Y7 )  )
( or ( <= ( + X7 54 ) X10 )  ( <= ( + X10 30 ) X7 )  ( <= ( + Y7 87 ) Y10 )  ( <= ( + Y10 31 ) Y7 )  )
( or ( <= ( + X7 54 ) X11 )  ( <= ( + X11 93 ) X7 )  ( <= ( + Y7 87 ) Y11 )  ( <= ( + Y11 7 ) Y7 )  )
( or ( <= ( + X7 54 ) X12 )  ( <= ( + X12 73 ) X7 )  ( <= ( + Y7 87 ) Y12 )  ( <= ( + Y12 98 ) Y7 )  )
( or ( <= ( + X7 54 ) X13 )  ( <= ( + X13 7 ) X7 )  ( <= ( + Y7 87 ) Y13 )  ( <= ( + Y13 84 ) Y7 )  )
( or ( <= ( + X7 54 ) X14 )  ( <= ( + X14 29 ) X7 )  ( <= ( + Y7 87 ) Y14 )  ( <= ( + Y14 5 ) Y7 )  )
( or ( <= ( + X8 15 ) X9 )  ( <= ( + X9 99 ) X8 )  ( <= ( + Y8 70 ) Y9 )  ( <= ( + Y9 56 ) Y8 )  )
( or ( <= ( + X8 15 ) X10 )  ( <= ( + X10 30 ) X8 )  ( <= ( + Y8 70 ) Y10 )  ( <= ( + Y10 31 ) Y8 )  )
( or ( <= ( + X8 15 ) X11 )  ( <= ( + X11 93 ) X8 )  ( <= ( + Y8 70 ) Y11 )  ( <= ( + Y11 7 ) Y8 )  )
( or ( <= ( + X8 15 ) X12 )  ( <= ( + X12 73 ) X8 )  ( <= ( + Y8 70 ) Y12 )  ( <= ( + Y12 98 ) Y8 )  )
( or ( <= ( + X8 15 ) X13 )  ( <= ( + X13 7 ) X8 )  ( <= ( + Y8 70 ) Y13 )  ( <= ( + Y13 84 ) Y8 )  )
( or ( <= ( + X8 15 ) X14 )  ( <= ( + X14 29 ) X8 )  ( <= ( + Y8 70 ) Y14 )  ( <= ( + Y14 5 ) Y8 )  )
( or ( <= ( + X9 99 ) X10 )  ( <= ( + X10 30 ) X9 )  ( <= ( + Y9 56 ) Y10 )  ( <= ( + Y10 31 ) Y9 )  )
( or ( <= ( + X9 99 ) X11 )  ( <= ( + X11 93 ) X9 )  ( <= ( + Y9 56 ) Y11 )  ( <= ( + Y11 7 ) Y9 )  )
( or ( <= ( + X9 99 ) X12 )  ( <= ( + X12 73 ) X9 )  ( <= ( + Y9 56 ) Y12 )  ( <= ( + Y12 98 ) Y9 )  )
( or ( <= ( + X9 99 ) X13 )  ( <= ( + X13 7 ) X9 )  ( <= ( + Y9 56 ) Y13 )  ( <= ( + Y13 84 ) Y9 )  )
( or ( <= ( + X9 99 ) X14 )  ( <= ( + X14 29 ) X9 )  ( <= ( + Y9 56 ) Y14 )  ( <= ( + Y14 5 ) Y9 )  )
( or ( <= ( + X10 30 ) X11 )  ( <= ( + X11 93 ) X10 )  ( <= ( + Y10 31 ) Y11 )  ( <= ( + Y11 7 ) Y10 )  )
( or ( <= ( + X10 30 ) X12 )  ( <= ( + X12 73 ) X10 )  ( <= ( + Y10 31 ) Y12 )  ( <= ( + Y12 98 ) Y10 )  )
( or ( <= ( + X10 30 ) X13 )  ( <= ( + X13 7 ) X10 )  ( <= ( + Y10 31 ) Y13 )  ( <= ( + Y13 84 ) Y10 )  )
( or ( <= ( + X10 30 ) X14 )  ( <= ( + X14 29 ) X10 )  ( <= ( + Y10 31 ) Y14 )  ( <= ( + Y14 5 ) Y10 )  )
( or ( <= ( + X11 93 ) X12 )  ( <= ( + X12 73 ) X11 )  ( <= ( + Y11 7 ) Y12 )  ( <= ( + Y12 98 ) Y11 )  )
( or ( <= ( + X11 93 ) X13 )  ( <= ( + X13 7 ) X11 )  ( <= ( + Y11 7 ) Y13 )  ( <= ( + Y13 84 ) Y11 )  )
( or ( <= ( + X11 93 ) X14 )  ( <= ( + X14 29 ) X11 )  ( <= ( + Y11 7 ) Y14 )  ( <= ( + Y14 5 ) Y11 )  )
( or ( <= ( + X12 73 ) X13 )  ( <= ( + X13 7 ) X12 )  ( <= ( + Y12 98 ) Y13 )  ( <= ( + Y13 84 ) Y12 )  )
( or ( <= ( + X12 73 ) X14 )  ( <= ( + X14 29 ) X12 )  ( <= ( + Y12 98 ) Y14 )  ( <= ( + Y14 5 ) Y12 )  )
( or ( <= ( + X13 7 ) X14 )  ( <= ( + X14 29 ) X13 )  ( <= ( + Y13 84 ) Y14 )  ( <= ( + Y14 5 ) Y13 )  )
( >= X0 0)
( <= ( + X0 36) Z)
( >= Y0 0)
( <= ( + Y0 75 ) 100)
( >= X1 0)
( <= ( + X1 15) Z)
( >= Y1 0)
( <= ( + Y1 4 ) 100)
( >= X2 0)
( <= ( + X2 4) Z)
( >= Y2 0)
( <= ( + Y2 8 ) 100)
( >= X3 0)
( <= ( + X3 33) Z)
( >= Y3 0)
( <= ( + Y3 99 ) 100)
( >= X4 0)
( <= ( + X4 42) Z)
( >= Y4 0)
( <= ( + Y4 99 ) 100)
( >= X5 0)
( <= ( + X5 14) Z)
( >= Y5 0)
( <= ( + Y5 68 ) 100)
( >= X6 0)
( <= ( + X6 47) Z)
( >= Y6 0)
( <= ( + Y6 71 ) 100)
( >= X7 0)
( <= ( + X7 54) Z)
( >= Y7 0)
( <= ( + Y7 87 ) 100)
( >= X8 0)
( <= ( + X8 15) Z)
( >= Y8 0)
( <= ( + Y8 70 ) 100)
( >= X9 0)
( <= ( + X9 99) Z)
( >= Y9 0)
( <= ( + Y9 56 ) 100)
( >= X10 0)
( <= ( + X10 30) Z)
( >= Y10 0)
( <= ( + Y10 31 ) 100)
( >= X11 0)
( <= ( + X11 93) Z)
( >= Y11 0)
( <= ( + Y11 7 ) 100)
( >= X12 0)
( <= ( + X12 73) Z)
( >= Y12 0)
( <= ( + Y12 98 ) 100)
( >= X13 0)
( <= ( + X13 7) Z)
( >= Y13 0)
( <= ( + Y13 84 ) 100)
( >= X14 0)
( <= ( + X14 29) Z)
( >= Y14 0)
( <= ( + Y14 5 ) 100)
) )
)(=> $phi $goal))))